Nom :att48
Type :TSP
Commentaire :48 capitals of the US (Padberg/Rinaldi)
TOUR_SECTION
1 ---> 8
8 ---> 9
9 ---> 38
38 ---> 31
31 ---> 44
44 ---> 18
18 ---> 7
7 ---> 28
28 ---> 6
6 ---> 37
37 ---> 19
19 ---> 27
27 ---> 17
17 ---> 43
43 ---> 30
30 ---> 36
36 ---> 46
46 ---> 33
33 ---> 20
20 ---> 47
47 ---> 13
13 ---> 21
21 ---> 32
32 ---> 24
24 ---> 10
10 ---> 45
45 ---> 35
35 ---> 4
4 ---> 26
26 ---> 2
2 ---> 29
29 ---> 5
5 ---> 42
42 ---> 48
48 ---> 39
39 ---> 25
25 ---> 14
14 ---> 34
34 ---> 41
41 ---> 16
16 ---> 22
22 ---> 3
3 ---> 23
23 ---> 11
11 ---> 12
12 ---> 15
15 ---> 40
40 ---> 1
-1
EOF